c ind 159 158 157 156 155 154 153 152 151 150 149 148 147 146 145 144 143 142 141 140 139 138 137 136 135 134 133 132 131 130 129 128  0
c ind 33 32 31 30 29 28 27 26 25 24 23 22 21 20 19 18 17 16 15 14 13 12 11 10 9 8 7 6 5 4 3 2  0
c ind 96 95 94 93 92 91 90 89 88 87 86 85 84 83 82 81 80 79 78 77 76 75 74 73 72 71 70 69 68 67 66 65  0
p cnf 252 435
1 0
-2 0
-3 0
-4 0
-5 0
-6 0
-7 0
-8 0
-9 0
-10 0
-11 0
-12 0
-13 0
-14 0
-15 0
-16 0
-17 0
-18 0
-19 0
-20 0
-21 0
-22 0
-23 0
-24 0
-25 0
-26 0
-27 0
-28 0
-29 0
-30 0
-31 0
-32 0
-33 0
34 0
35 0
36 0
37 0
38 0
39 0
40 0
41 0
42 0
43 0
44 0
45 0
46 0
47 0
48 0
49 0
50 0
51 0
52 0
53 0
54 0
55 0
56 0
57 0
58 0
59 0
60 0
61 0
62 0
63 0
64 0
-65 0
-66 0
-67 0
-68 0
-69 0
-70 0
-71 0
-72 0
-73 0
-74 0
-75 0
-76 0
-77 0
-78 0
-79 0
-80 0
-81 0
-82 0
-83 0
-84 0
-85 0
-86 0
-87 0
-88 0
-89 0
-90 0
-91 0
-92 0
-93 0
-94 0
-95 0
-96 0
97 0
98 0
99 0
100 0
101 0
102 0
103 0
104 0
105 0
106 0
107 0
108 0
109 0
110 0
111 0
112 0
113 0
114 0
115 0
116 0
117 0
118 0
119 0
120 0
121 0
122 0
123 0
124 0
125 0
126 0
127 0
-252 0
-128 -190 -189 0
-128 190 189 0
128 -190 189 0
128 190 -189 0
-129 -189 0
-129 -191 -188 0
-129 191 188 0
129 -188 189 0
129 -191 188 0
129 191 -188 0
-130 -188 0
-130 -192 -187 0
-130 192 187 0
130 -187 188 0
130 -192 187 0
130 192 -187 0
-131 -187 0
-131 -193 -186 0
-131 193 186 0
131 -186 187 0
131 -193 186 0
131 193 -186 0
-132 -186 0
-132 -194 -185 0
-132 194 185 0
132 -185 186 0
132 -194 185 0
132 194 -185 0
-133 -185 0
-133 -195 -184 0
-133 195 184 0
133 -184 185 0
133 -195 184 0
133 195 -184 0
-134 -184 0
-134 -196 -183 0
-134 196 183 0
134 -183 184 0
134 -196 183 0
134 196 -183 0
-135 -183 0
-135 -197 -182 0
-135 197 182 0
135 -182 183 0
135 -197 182 0
135 197 -182 0
-136 -182 0
-136 -198 -181 0
-136 198 181 0
136 -181 182 0
136 -198 181 0
136 198 -181 0
-137 -181 0
-137 -199 -180 0
-137 199 180 0
137 -180 181 0
137 -199 180 0
137 199 -180 0
-138 -180 0
-138 -200 -179 0
-138 200 179 0
138 -179 180 0
138 -200 179 0
138 200 -179 0
-139 -179 0
-139 -201 -178 0
-139 201 178 0
139 -178 179 0
139 -201 178 0
139 201 -178 0
-140 -178 0
-140 -202 -177 0
-140 202 177 0
140 -177 178 0
140 -202 177 0
140 202 -177 0
-141 -177 0
-141 -203 -176 0
-141 203 176 0
141 -176 177 0
141 -203 176 0
141 203 -176 0
-142 -176 0
-142 -204 -175 0
-142 204 175 0
142 -175 176 0
142 -204 175 0
142 204 -175 0
-143 -175 0
-143 -205 -174 0
-143 205 174 0
143 -174 175 0
143 -205 174 0
143 205 -174 0
-144 -174 0
-144 -206 -173 0
-144 206 173 0
144 -173 174 0
144 -206 173 0
144 206 -173 0
-145 -173 0
-145 -207 -172 0
-145 207 172 0
145 -172 173 0
145 -207 172 0
145 207 -172 0
-146 -172 0
-146 -208 -171 0
-146 208 171 0
146 -171 172 0
146 -208 171 0
146 208 -171 0
-147 -171 0
-147 -209 -170 0
-147 209 170 0
147 -170 171 0
147 -209 170 0
147 209 -170 0
-148 -170 0
-148 -210 -169 0
-148 210 169 0
148 -169 170 0
148 -210 169 0
148 210 -169 0
-149 -169 0
-149 -211 -168 0
-149 211 168 0
149 -168 169 0
149 -211 168 0
149 211 -168 0
-150 -168 0
-150 -212 -167 0
-150 212 167 0
150 -167 168 0
150 -212 167 0
150 212 -167 0
-151 -167 0
-151 -213 -166 0
-151 213 166 0
151 -166 167 0
151 -213 166 0
151 213 -166 0
-152 -166 0
-152 -214 -165 0
-152 214 165 0
152 -165 166 0
152 -214 165 0
152 214 -165 0
-153 -165 0
-153 -215 -164 0
-153 215 164 0
153 -164 165 0
153 -215 164 0
153 215 -164 0
-154 -164 0
-154 -216 -163 0
-154 216 163 0
154 -163 164 0
154 -216 163 0
154 216 -163 0
-155 -163 0
-155 -217 -162 0
-155 217 162 0
155 -162 163 0
155 -217 162 0
155 217 -162 0
-156 -162 0
-156 -218 -161 0
-156 218 161 0
156 -161 162 0
156 -218 161 0
156 218 -161 0
-157 -161 0
-157 -219 160 0
-157 219 -160 0
157 160 161 0
157 -219 -160 0
157 219 160 0
-158 -220 0
-158 -159 160 0
158 -160 0
158 159 220 0
-159 -220 0
-159 -250 251 0
159 -160 0
159 -251 0
-160 -161 0
-160 -221 0
160 220 221 0
161 -162 0
162 -163 0
163 -164 0
164 -165 0
165 -166 0
166 -167 0
167 -168 0
168 -169 0
169 -170 0
170 -171 0
171 -172 0
172 -173 0
173 -174 0
174 -175 0
175 -176 0
176 -177 0
177 -178 0
178 -179 0
179 -180 0
180 -181 0
181 -182 0
182 -183 0
183 -184 0
184 -185 0
185 -186 0
186 -187 0
187 -188 0
188 -189 0
190 251 0
-191 -222 0
191 192 222 0
-192 -222 0
-193 -223 0
193 -222 223 0
-194 -224 0
194 -223 224 0
-195 -225 0
195 -224 225 0
-196 -226 0
196 -225 226 0
-197 -227 0
197 -226 227 0
-198 -228 0
198 -227 228 0
-199 -229 0
199 -228 229 0
-200 -230 0
200 -229 230 0
-201 -231 0
201 -230 231 0
-202 -232 0
202 -231 232 0
-203 -233 0
203 -232 233 0
-204 -234 0
204 -233 234 0
-205 -235 0
205 -234 235 0
-206 -236 0
206 -235 236 0
-207 -237 0
207 -236 237 0
-208 -238 0
208 -237 238 0
-209 -239 0
209 -238 239 0
-210 -240 0
210 -239 240 0
-211 -241 0
211 -240 241 0
-212 -242 0
212 -241 242 0
-213 -243 0
213 -242 243 0
-214 -244 0
214 -243 244 0
-215 -245 0
215 -244 245 0
-216 -246 0
216 -245 246 0
-217 -247 0
217 -246 247 0
-218 -248 0
218 -247 248 0
-219 -249 0
219 -248 249 0
-220 -221 0
-221 -250 0
221 -249 250 0
222 -223 0
223 -224 0
224 -225 0
225 -226 0
226 -227 0
227 -228 0
228 -229 0
229 -230 0
230 -231 0
231 -232 0
232 -233 0
233 -234 0
234 -235 0
235 -236 0
236 -237 0
237 -238 0
238 -239 0
239 -240 0
240 -241 0
241 -242 0
242 -243 0
243 -244 0
244 -245 0
245 -246 0
246 -247 0
247 -248 0
248 -249 0
249 -250 0
250 -251 0
